
  12    4
  10   10   10   10

   0   0   0   0   0   3 2 3 5 
   1  10  10  10  10   3 11 9 6 
   3  10  10  10  10   1 4 
   9  10  10  10  10   2 8 7 
  10  10  10  10  10   2 11 7 
   2  10  10  10  10   1 7 
   6  10  10  10  10   1 10 
   1  10  10  10  10   1 11 
   1  10  10  10  10   1 10 
   6  10  10  10  10   1 12
   5  10  10  10  10   1 12
   0   0   0   0   0   0 
